NAME : grid
TYPE : TSP
DIMENSION : 50
EDGE_WEIGHT_TYPE : EUC_2D
NODE_COORD_SECTION
1 972887 803225
2 518764 311858
3 523753 82032
4 860814 960394
5 983758 591106
6 544209 44243
7 378020 905058
8 641339 259191
9 23643 588296
10 860061 14750
11 561884 300067
12 90642 601930
13 439132 5445
14 796024 341335
15 60965 757854
16 942572 46176
17 769006 300067
18 195170 718466
19 609055 878609
20 130474 31519
21 389008 228202
22 505967 377460
23 561884 509966
24 269830 293952
25 769006 509966
26 149698 449781
27 238619 315298
28 134716 789365
29 799899 533753
30 293436 119016
31 572507 748288
32 733327 743404
33 163290 568515
34 99540 894428
35 981301 745747
36 479147 718466
37 38415 625356
38 195170 832836
39 652321 948930
40 479147 832836
41 549185 110533
42 73414 868441
43 955757 795331
44 594992 119374
45 440895 224841
46 498489 828468
47 728908 11854
48 646298 228340
49 524881 827317
50 577236 868585
EOF
